decision_x1=[0,7];
decision_x2=[0,7];
decision_x3=[0,7];
decision_x4=[0,7];
decision_x5=[0,7];
decision_x6=[0,7];
decision_x7=[0,7];
decision_x8=[0,7];
decision_x9=[0,7];
decision_x10=[0,7];
decision_x11=[0,7];
decision_x12=[0,7];
decision_x13=[0,7];
decision_x14=[0,7];
decision_x15=[0,7];
decision_x16=[0,7];
random_y1=[0,7];
random_y2=[0,7];
random_y3=[0,7];
random_y4=[0,7];
random_y5=[0,7];
random_y6=[0,7];
random_y7=[0,7];
constraint_x2_x1=[
0,0,2.9|
0,1,7.1|
0,2,0.53|
0,3,3.5|
0,4,3.6|
0,5,0.8|
0,6,7.9|
0,7,5.2|
1,0,8.8|
1,1,8|
1,2,2.6|
1,3,1.8|
1,4,7.1|
1,5,8.1|
1,6,2.7|
1,7,9.2|
2,0,6.3|
2,1,2.2|
2,2,8.6|
2,3,6.9|
2,4,3.2|
2,5,8.4|
2,6,2.4|
2,7,3.3|
3,0,1.4|
3,1,7.7|
3,2,6.9|
3,3,5.1|
3,4,1.8|
3,5,0.26|
3,6,2.3|
3,7,9.4|
4,0,9.9|
4,1,7.3|
4,2,3|
4,3,7.8|
4,4,7.3|
4,5,4.1|
4,6,4.9|
4,7,3.4|
5,0,0.72|
5,1,5.1|
5,2,7.6|
5,3,6|
5,4,6.1|
5,5,9.1|
5,6,6.9|
5,7,8.9|
6,0,3.7|
6,1,6.6|
6,2,5.2|
6,3,4.5|
6,4,1.7|
6,5,2.4|
6,6,8.1|
6,7,3.5|
7,0,9.2|
7,1,8.7|
7,2,0.47|
7,3,9.9|
7,4,3.8|
7,5,8.2|
7,6,9.7|
7,7,8.1|
];
constraint_x3_x2=[
0,0,9.1|
0,1,2.2|
0,2,9.8|
0,3,0.46|
0,4,1.9|
0,5,7.4|
0,6,0.92|
0,7,1.9|
1,0,8.2|
1,1,5.8|
1,2,3.1|
1,3,7.4|
1,4,6.7|
1,5,1.4|
1,6,9.5|
1,7,8.1|
2,0,9.4|
2,1,9.4|
2,2,1.1|
2,3,0.21|
2,4,1.8|
2,5,5.1|
2,6,2.5|
2,7,4.7|
3,0,6.6|
3,1,5|
3,2,1.5|
3,3,8.3|
3,4,3.9|
3,5,3.4|
3,6,2.1|
3,7,4.4|
4,0,5.9|
4,1,8.9|
4,2,9|
4,3,7.5|
4,4,5.4|
4,5,8|
4,6,8.9|
4,7,6|
5,0,5.9|
5,1,1.9|
5,2,2.5|
5,3,8.3|
5,4,3|
5,5,7.3|
5,6,9.8|
5,7,9.6|
6,0,0.46|
6,1,2.1|
6,2,9.1|
6,3,9.8|
6,4,4.3|
6,5,5.9|
6,6,8.9|
6,7,2.3|
7,0,4.4|
7,1,7.7|
7,2,8.1|
7,3,3.5|
7,4,3.2|
7,5,0.82|
7,6,9.6|
7,7,8.4|
];
constraint_x4_x3=[
0,0,3.5|
0,1,7.7|
0,2,2|
0,3,4.8|
0,4,1.9|
0,5,5.2|
0,6,4.6|
0,7,4.1|
1,0,9.8|
1,1,5.1|
1,2,6.5|
1,3,1.1|
1,4,1.3|
1,5,6.4|
1,6,3.1|
1,7,3.5|
2,0,4.4|
2,1,3.1|
2,2,8.4|
2,3,1.9|
2,4,7.5|
2,5,2.7|
2,6,8.8|
2,7,8.5|
3,0,9|
3,1,7.6|
3,2,4.6|
3,3,2|
3,4,4.7|
3,5,5|
3,6,8.4|
3,7,8.1|
4,0,3.4|
4,1,8.7|
4,2,7|
4,3,4.9|
4,4,7.7|
4,5,3.3|
4,6,8.2|
4,7,7.6|
5,0,0.75|
5,1,7.9|
5,2,8.6|
5,3,2.5|
5,4,7.4|
5,5,0.62|
5,6,0.22|
5,7,2.9|
6,0,9.1|
6,1,3|
6,2,8.2|
6,3,8.4|
6,4,3.4|
6,5,5.4|
6,6,7.8|
6,7,3.9|
7,0,2.4|
7,1,2.5|
7,2,5.3|
7,3,7.2|
7,4,2.4|
7,5,5.3|
7,6,0.97|
7,7,7.7|
];
constraint_x5_x1=[
0,0,0.65|
0,1,0.56|
0,2,7.6|
0,3,8.5|
0,4,7.9|
0,5,2.8|
0,6,1.9|
0,7,1|
1,0,7.9|
1,1,0.83|
1,2,4|
1,3,2.8|
1,4,4.2|
1,5,9.7|
1,6,2.2|
1,7,7.8|
2,0,0.49|
2,1,8.1|
2,2,0.49|
2,3,4.1|
2,4,9|
2,5,5.7|
2,6,1.7|
2,7,7|
3,0,1.7|
3,1,1.2|
3,2,3.6|
3,3,4.8|
3,4,1.3|
3,5,2.8|
3,6,6.5|
3,7,8.9|
4,0,5.8|
4,1,9|
4,2,6.6|
4,3,9.1|
4,4,3.9|
4,5,1.7|
4,6,8.9|
4,7,9.2|
5,0,9.7|
5,1,0.41|
5,2,8.3|
5,3,7.3|
5,4,5|
5,5,6.2|
5,6,8.2|
5,7,6.1|
6,0,8.1|
6,1,2.7|
6,2,4.4|
6,3,3.3|
6,4,3.5|
6,5,9.4|
6,6,9.3|
6,7,3.7|
7,0,2.3|
7,1,5|
7,2,5.2|
7,3,3.4|
7,4,5|
7,5,3.9|
7,6,7.6|
7,7,1.6|
];
constraint_x6_x2=[
0,0,3.3|
0,1,2.4|
0,2,9.8|
0,3,8|
0,4,7|
0,5,5.5|
0,6,5.2|
0,7,5.9|
1,0,9.5|
1,1,0.4|
1,2,1.9|
1,3,7.9|
1,4,2.1|
1,5,5.2|
1,6,2.4|
1,7,7.3|
2,0,5.5|
2,1,0.39|
2,2,5.7|
2,3,4.7|
2,4,6.2|
2,5,7.6|
2,6,3.5|
2,7,6.5|
3,0,0.098|
3,1,8.2|
3,2,2.8|
3,3,9.5|
3,4,5|
3,5,1.7|
3,6,1.5|
3,7,9.3|
4,0,0.8|
4,1,9.9|
4,2,4|
4,3,6.2|
4,4,7|
4,5,4.1|
4,6,2.8|
4,7,4.2|
5,0,5.3|
5,1,9.3|
5,2,9.6|
5,3,3.2|
5,4,7.3|
5,5,5.3|
5,6,5.9|
5,7,4.6|
6,0,4.1|
6,1,3|
6,2,1.3|
6,3,6.7|
6,4,3.4|
6,5,5.6|
6,6,4.8|
6,7,9.9|
7,0,7.1|
7,1,1.7|
7,2,4.5|
7,3,7.6|
7,4,3.8|
7,5,9.3|
7,6,3.5|
7,7,9|
];
constraint_x6_x5=[
0,0,5.2|
0,1,4.8|
0,2,0.31|
0,3,5.8|
0,4,2|
0,5,7.4|
0,6,2.8|
0,7,7.3|
1,0,1.5|
1,1,0.42|
1,2,5.2|
1,3,9.8|
1,4,9.5|
1,5,9.9|
1,6,8.8|
1,7,7.2|
2,0,1.8|
2,1,2.8|
2,2,1.9|
2,3,4.6|
2,4,1.7|
2,5,8.9|
2,6,3.6|
2,7,9.5|
3,0,7.9|
3,1,3|
3,2,7.5|
3,3,1.1|
3,4,1.9|
3,5,5.3|
3,6,2.1|
3,7,2.3|
4,0,7.7|
4,1,5.7|
4,2,10|
4,3,9.1|
4,4,1.2|
4,5,5.7|
4,6,0.6|
4,7,7|
5,0,2.3|
5,1,3.6|
5,2,8.3|
5,3,4|
5,4,8.3|
5,5,1.6|
5,6,5.2|
5,7,9.6|
6,0,8.9|
6,1,4.3|
6,2,5.2|
6,3,5.6|
6,4,2.9|
6,5,5.7|
6,6,3.7|
6,7,5.1|
7,0,7.3|
7,1,6.9|
7,2,0.51|
7,3,7.6|
7,4,4.2|
7,5,2.6|
7,6,7.1|
7,7,9.7|
];
constraint_x7_x3=[
0,0,6.1|
0,1,2.8|
0,2,5.9|
0,3,10|
0,4,8.9|
0,5,5.7|
0,6,1.4|
0,7,5.9|
1,0,10|
1,1,7.8|
1,2,2.9|
1,3,1.7|
1,4,8.3|
1,5,1.1|
1,6,8.5|
1,7,6.5|
2,0,4.4|
2,1,8.3|
2,2,5|
2,3,7.1|
2,4,2.4|
2,5,2.3|
2,6,4.3|
2,7,6.4|
3,0,3.7|
3,1,9.2|
3,2,8.3|
3,3,0.29|
3,4,6.2|
3,5,3.4|
3,6,0.079|
3,7,6.6|
4,0,6.1|
4,1,7.2|
4,2,1.5|
4,3,4|
4,4,5.8|
4,5,2.5|
4,6,8.2|
4,7,3.8|
5,0,9.1|
5,1,9|
5,2,7|
5,3,3.5|
5,4,8.5|
5,5,2.4|
5,6,9.1|
5,7,0.5|
6,0,8|
6,1,0.73|
6,2,6.3|
6,3,5.6|
6,4,0.68|
6,5,4.6|
6,6,4.5|
6,7,3.4|
7,0,9.1|
7,1,5.7|
7,2,5.1|
7,3,2|
7,4,8.3|
7,5,3.4|
7,6,4.6|
7,7,6|
];
constraint_x7_x6=[
0,0,1.5|
0,1,3.2|
0,2,1.8|
0,3,6.9|
0,4,4.8|
0,5,4.8|
0,6,3.9|
0,7,5.6|
1,0,7.3|
1,1,9.9|
1,2,7.4|
1,3,5.1|
1,4,7.6|
1,5,6.6|
1,6,7.6|
1,7,4.5|
2,0,6|
2,1,5.1|
2,2,8.5|
2,3,7.5|
2,4,7.4|
2,5,4.9|
2,6,2.5|
2,7,6.4|
3,0,5.3|
3,1,1.1|
3,2,1|
3,3,4.5|
3,4,7.5|
3,5,3.6|
3,6,2|
3,7,3|
4,0,4.4|
4,1,4.5|
4,2,3.4|
4,3,1.9|
4,4,8.8|
4,5,5.2|
4,6,8|
4,7,8.8|
5,0,2.4|
5,1,5.6|
5,2,8.2|
5,3,5.6|
5,4,5.8|
5,5,2.1|
5,6,0.57|
5,7,4.6|
6,0,1.3|
6,1,9.4|
6,2,6.2|
6,3,7.4|
6,4,5.3|
6,5,3.7|
6,6,3.4|
6,7,4.1|
7,0,5|
7,1,6.9|
7,2,9|
7,3,8.2|
7,4,2.1|
7,5,0.96|
7,6,8.2|
7,7,0.64|
];
constraint_x8_x4=[
0,0,3.7|
0,1,7.6|
0,2,6.3|
0,3,5.1|
0,4,3.9|
0,5,6.7|
0,6,3.3|
0,7,3|
1,0,5.4|
1,1,5.4|
1,2,4.8|
1,3,4.6|
1,4,7.5|
1,5,1.1|
1,6,5.7|
1,7,7.1|
2,0,9.9|
2,1,9|
2,2,0.56|
2,3,5|
2,4,7.8|
2,5,7.9|
2,6,8.9|
2,7,8.1|
3,0,8.7|
3,1,5.2|
3,2,1.9|
3,3,8.5|
3,4,4.1|
3,5,3|
3,6,5.2|
3,7,1.5|
4,0,0.18|
4,1,8.2|
4,2,5.2|
4,3,6.9|
4,4,5.2|
4,5,7.9|
4,6,6.9|
4,7,0.29|
5,0,6.8|
5,1,5|
5,2,0.25|
5,3,6.6|
5,4,0.84|
5,5,5.2|
5,6,3.7|
5,7,4.2|
6,0,4|
6,1,5.9|
6,2,9.7|
6,3,0.34|
6,4,5.7|
6,5,0.37|
6,6,8|
6,7,0.64|
7,0,6.7|
7,1,4.3|
7,2,1.3|
7,3,5.9|
7,4,7.1|
7,5,4.5|
7,6,1.2|
7,7,2.1|
];
constraint_x8_x7=[
0,0,9.5|
0,1,2.1|
0,2,0.85|
0,3,7.7|
0,4,3.8|
0,5,1.4|
0,6,4|
0,7,2.6|
1,0,6.1|
1,1,7.4|
1,2,5.5|
1,3,5.6|
1,4,0.61|
1,5,7.9|
1,6,2.6|
1,7,4.5|
2,0,6.2|
2,1,0.75|
2,2,2.3|
2,3,1.4|
2,4,6.6|
2,5,4.4|
2,6,1.3|
2,7,3.8|
3,0,1.9|
3,1,0.92|
3,2,0.18|
3,3,7.1|
3,4,9.8|
3,5,0.68|
3,6,4.8|
3,7,0.67|
4,0,3.4|
4,1,9.3|
4,2,1.6|
4,3,3.3|
4,4,1.6|
4,5,8.7|
4,6,8.6|
4,7,10|
5,0,1.2|
5,1,2.6|
5,2,9.8|
5,3,7.9|
5,4,2.5|
5,5,5.5|
5,6,2.5|
5,7,0.82|
6,0,3.1|
6,1,3.9|
6,2,9.8|
6,3,1.8|
6,4,9|
6,5,3.2|
6,6,5.2|
6,7,6|
7,0,6.8|
7,1,8.7|
7,2,3.5|
7,3,7.8|
7,4,8.8|
7,5,9.8|
7,6,1.2|
7,7,8.8|
];
constraint_x9_x5=[
0,0,3.3|
0,1,9.6|
0,2,9.2|
0,3,5.1|
0,4,0.48|
0,5,3.8|
0,6,6.2|
0,7,1.7|
1,0,6.9|
1,1,10|
1,2,3.9|
1,3,0.21|
1,4,7|
1,5,9.8|
1,6,1.7|
1,7,5.6|
2,0,9|
2,1,8.9|
2,2,3.2|
2,3,2.4|
2,4,1.2|
2,5,3.6|
2,6,8.1|
2,7,4.5|
3,0,0.97|
3,1,5.5|
3,2,0.56|
3,3,2.6|
3,4,7.5|
3,5,1.7|
3,6,9.1|
3,7,1.8|
4,0,0.019|
4,1,2.7|
4,2,4.5|
4,3,8.5|
4,4,0.77|
4,5,3.4|
4,6,2.4|
4,7,9.2|
5,0,0.42|
5,1,3.2|
5,2,8.5|
5,3,7.3|
5,4,1.7|
5,5,5.1|
5,6,6.6|
5,7,8.3|
6,0,1.4|
6,1,8.7|
6,2,0.79|
6,3,0.076|
6,4,9|
6,5,4|
6,6,8.3|
6,7,2.7|
7,0,8.6|
7,1,4.9|
7,2,9.7|
7,3,9.4|
7,4,7.3|
7,5,1.1|
7,6,1.6|
7,7,0.8|
];
constraint_x10_x6=[
0,0,1.7|
0,1,9|
0,2,0.52|
0,3,4.1|
0,4,2.5|
0,5,6.2|
0,6,2.1|
0,7,0.45|
1,0,7.3|
1,1,4.6|
1,2,6|
1,3,4.5|
1,4,3.3|
1,5,6.2|
1,6,1.8|
1,7,3.5|
2,0,3.3|
2,1,6.8|
2,2,7.1|
2,3,2.4|
2,4,7.3|
2,5,7.8|
2,6,4.3|
2,7,2.5|
3,0,3.2|
3,1,4|
3,2,0.43|
3,3,1.3|
3,4,4.8|
3,5,0.5|
3,6,9.9|
3,7,8.2|
4,0,6.3|
4,1,2.1|
4,2,4.3|
4,3,0.69|
4,4,0.76|
4,5,6.3|
4,6,5.6|
4,7,8.7|
5,0,5.4|
5,1,4.2|
5,2,4.4|
5,3,7.3|
5,4,3.5|
5,5,8.9|
5,6,4.8|
5,7,4.8|
6,0,1.9|
6,1,5.6|
6,2,6.8|
6,3,3|
6,4,0.44|
6,5,6.5|
6,6,5.4|
6,7,3.3|
7,0,5.9|
7,1,2.6|
7,2,6.8|
7,3,4.6|
7,4,0.38|
7,5,8|
7,6,4.2|
7,7,9|
];
constraint_x10_x9=[
0,0,7.7|
0,1,8.6|
0,2,9.2|
0,3,7.1|
0,4,9.9|
0,5,7|
0,6,8|
0,7,0.86|
1,0,0.31|
1,1,6.4|
1,2,8.7|
1,3,0.37|
1,4,0.52|
1,5,5.9|
1,6,4.1|
1,7,5.5|
2,0,8.2|
2,1,3.4|
2,2,8.2|
2,3,5|
2,4,9.3|
2,5,8.3|
2,6,9.1|
2,7,2.7|
3,0,3.1|
3,1,0.88|
3,2,1.3|
3,3,8.5|
3,4,5|
3,5,6.1|
3,6,7.1|
3,7,9.7|
4,0,8.8|
4,1,6.2|
4,2,3.9|
4,3,0.65|
4,4,2.7|
4,5,5.4|
4,6,3.2|
4,7,7.7|
5,0,9.6|
5,1,3|
5,2,9.6|
5,3,8.3|
5,4,2|
5,5,7.9|
5,6,4|
5,7,3.5|
6,0,0.92|
6,1,7.4|
6,2,9.8|
6,3,3.8|
6,4,8.2|
6,5,3.7|
6,6,2|
6,7,3.2|
7,0,2|
7,1,6.4|
7,2,4.4|
7,3,9.9|
7,4,5.9|
7,5,5|
7,6,7.5|
7,7,6.4|
];
constraint_x11_x7=[
0,0,5|
0,1,0.43|
0,2,2.7|
0,3,4.2|
0,4,2|
0,5,9.3|
0,6,1.7|
0,7,9.7|
1,0,7.1|
1,1,2.3|
1,2,5.5|
1,3,4.2|
1,4,5|
1,5,2.9|
1,6,0.67|
1,7,9.9|
2,0,3.7|
2,1,0.54|
2,2,8.8|
2,3,7.7|
2,4,9.1|
2,5,0.97|
2,6,4.2|
2,7,0.4|
3,0,9.1|
3,1,8.6|
3,2,9.5|
3,3,1.6|
3,4,2.8|
3,5,4.3|
3,6,7.2|
3,7,2.1|
4,0,5.9|
4,1,6.2|
4,2,1.3|
4,3,4.9|
4,4,4|
4,5,9.7|
4,6,0.55|
4,7,8.4|
5,0,2.1|
5,1,1.9|
5,2,7.7|
5,3,5.2|
5,4,2.2|
5,5,8|
5,6,2.5|
5,7,9.7|
6,0,2.5|
6,1,7.6|
6,2,4.8|
6,3,8.8|
6,4,2.8|
6,5,2.8|
6,6,6.3|
6,7,7.3|
7,0,7.7|
7,1,5.3|
7,2,8.7|
7,3,3.1|
7,4,3.7|
7,5,3.9|
7,6,1.2|
7,7,2.6|
];
constraint_x11_x10=[
0,0,4.1|
0,1,1.9|
0,2,5.9|
0,3,8.7|
0,4,3.4|
0,5,3.4|
0,6,7.6|
0,7,5.4|
1,0,5.6|
1,1,6.1|
1,2,9|
1,3,9.8|
1,4,2.8|
1,5,0.46|
1,6,0.28|
1,7,5|
2,0,5.3|
2,1,6|
2,2,6|
2,3,2.8|
2,4,7.3|
2,5,3.6|
2,6,7.9|
2,7,4.7|
3,0,9|
3,1,1.6|
3,2,5.2|
3,3,0.094|
3,4,6|
3,5,0.079|
3,6,3.7|
3,7,7.7|
4,0,8.1|
4,1,6.7|
4,2,0.65|
4,3,7.7|
4,4,6.8|
4,5,6.4|
4,6,5.9|
4,7,7.1|
5,0,6.1|
5,1,2.9|
5,2,5.8|
5,3,0.19|
5,4,8.5|
5,5,4.7|
5,6,3.1|
5,7,9.2|
6,0,0.0016|
6,1,1.1|
6,2,4.8|
6,3,9.6|
6,4,0.38|
6,5,0.31|
6,6,9.1|
6,7,2.4|
7,0,9.3|
7,1,4.9|
7,2,5.5|
7,3,4.5|
7,4,2|
7,5,6.3|
7,6,7.4|
7,7,7.3|
];
constraint_x12_x8=[
0,0,4.7|
0,1,9.3|
0,2,2.4|
0,3,4.8|
0,4,7.2|
0,5,1.4|
0,6,9.7|
0,7,6.3|
1,0,4.9|
1,1,4.7|
1,2,7|
1,3,7.6|
1,4,8.8|
1,5,6.2|
1,6,4.6|
1,7,2.4|
2,0,1.4|
2,1,1.7|
2,2,6.6|
2,3,4.8|
2,4,9.5|
2,5,4.9|
2,6,2|
2,7,7.5|
3,0,0.45|
3,1,3.8|
3,2,9.5|
3,3,8|
3,4,4.6|
3,5,1.2|
3,6,5.1|
3,7,3.1|
4,0,0.8|
4,1,8|
4,2,8.4|
4,3,5.3|
4,4,4.5|
4,5,2.4|
4,6,6.3|
4,7,7.8|
5,0,3.7|
5,1,7.4|
5,2,9.3|
5,3,1.7|
5,4,0.87|
5,5,8.5|
5,6,0.71|
5,7,8|
6,0,1.9|
6,1,9.3|
6,2,7.3|
6,3,6.6|
6,4,5|
6,5,5.4|
6,6,5.4|
6,7,5.4|
7,0,2.5|
7,1,0.88|
7,2,3.2|
7,3,4.1|
7,4,6.1|
7,5,8|
7,6,0.84|
7,7,0.019|
];
constraint_x12_x11=[
0,0,4|
0,1,6.7|
0,2,5.1|
0,3,4.2|
0,4,5.6|
0,5,8.4|
0,6,6.5|
0,7,3.8|
1,0,3.9|
1,1,2.9|
1,2,4|
1,3,4.2|
1,4,9.1|
1,5,9|
1,6,6.1|
1,7,9.4|
2,0,3.7|
2,1,5.5|
2,2,1.6|
2,3,5.2|
2,4,1.7|
2,5,4|
2,6,7.7|
2,7,8.1|
3,0,7.8|
3,1,3.1|
3,2,5.2|
3,3,6.2|
3,4,7.4|
3,5,5.8|
3,6,3.5|
3,7,0.13|
4,0,8.4|
4,1,0.37|
4,2,7.8|
4,3,7.3|
4,4,7.5|
4,5,3.3|
4,6,6.4|
4,7,9.3|
5,0,5.2|
5,1,9|
5,2,4.6|
5,3,6|
5,4,1.8|
5,5,9.5|
5,6,0.82|
5,7,2.9|
6,0,4|
6,1,5|
6,2,1.3|
6,3,0.52|
6,4,7.5|
6,5,7.4|
6,6,4.4|
6,7,7|
7,0,1.9|
7,1,2.9|
7,2,2|
7,3,1.3|
7,4,3.2|
7,5,3.2|
7,6,7.8|
7,7,4.8|
];
constraint_x13_x9=[
0,0,6.6|
0,1,9.4|
0,2,3.9|
0,3,9.5|
0,4,8.8|
0,5,0.8|
0,6,8.7|
0,7,3.5|
1,0,5.5|
1,1,8.5|
1,2,5.1|
1,3,1.8|
1,4,3.1|
1,5,4.7|
1,6,5.7|
1,7,6.3|
2,0,2|
2,1,2.1|
2,2,2.4|
2,3,6.6|
2,4,7.3|
2,5,8.5|
2,6,0.48|
2,7,7.6|
3,0,9.8|
3,1,0.94|
3,2,4.5|
3,3,1.1|
3,4,1.9|
3,5,9.4|
3,6,4.5|
3,7,8.7|
4,0,2.5|
4,1,0.19|
4,2,3.5|
4,3,7.8|
4,4,6.3|
4,5,5.5|
4,6,0.39|
4,7,7.5|
5,0,4.1|
5,1,3.8|
5,2,5.3|
5,3,2|
5,4,0.24|
5,5,0.97|
5,6,4.6|
5,7,3.4|
6,0,6|
6,1,8.3|
6,2,4|
6,3,1.3|
6,4,5.4|
6,5,5.6|
6,6,9|
6,7,5.4|
7,0,2.2|
7,1,6.5|
7,2,9.4|
7,3,9.1|
7,4,6.4|
7,5,7.6|
7,6,6.4|
7,7,1.3|
];
constraint_x14_x10=[
0,0,0.31|
0,1,7.3|
0,2,9.3|
0,3,0.025|
0,4,7.2|
0,5,4|
0,6,2.9|
0,7,3.1|
1,0,7.8|
1,1,7.9|
1,2,3.7|
1,3,0.16|
1,4,1.1|
1,5,3.6|
1,6,1.6|
1,7,5.4|
2,0,8.1|
2,1,8|
2,2,8.8|
2,3,5.9|
2,4,7|
2,5,1.8|
2,6,5.2|
2,7,9.1|
3,0,4.9|
3,1,3.3|
3,2,3.9|
3,3,9.2|
3,4,0.45|
3,5,5.3|
3,6,9.5|
3,7,6.9|
4,0,2.4|
4,1,1.7|
4,2,5.7|
4,3,2.5|
4,4,6.2|
4,5,5.4|
4,6,5|
4,7,8.7|
5,0,2|
5,1,2.2|
5,2,5.4|
5,3,5.5|
5,4,8.9|
5,5,5|
5,6,2.4|
5,7,6.3|
6,0,2.5|
6,1,2.6|
6,2,1.1|
6,3,4.3|
6,4,3.6|
6,5,4.6|
6,6,1.3|
6,7,0.93|
7,0,3.5|
7,1,1.2|
7,2,6.5|
7,3,1.7|
7,4,3.4|
7,5,1.8|
7,6,3|
7,7,8.5|
];
constraint_x14_x13=[
0,0,8.7|
0,1,5.6|
0,2,2.9|
0,3,1.8|
0,4,1.5|
0,5,6.6|
0,6,1.9|
0,7,0.27|
1,0,4.3|
1,1,6.4|
1,2,10|
1,3,9.5|
1,4,9.6|
1,5,4.6|
1,6,5.2|
1,7,5.9|
2,0,1.8|
2,1,9.2|
2,2,4.9|
2,3,9.7|
2,4,2.3|
2,5,0.53|
2,6,0.98|
2,7,1.1|
3,0,8.1|
3,1,8.4|
3,2,4.5|
3,3,2.9|
3,4,3|
3,5,5|
3,6,1.2|
3,7,7|
4,0,6.3|
4,1,4.4|
4,2,8.7|
4,3,2.4|
4,4,3.7|
4,5,8.9|
4,6,0.87|
4,7,9.2|
5,0,5.7|
5,1,9.3|
5,2,1.6|
5,3,4.9|
5,4,4.8|
5,5,1.2|
5,6,8|
5,7,7.5|
6,0,2.7|
6,1,3.9|
6,2,0.39|
6,3,4.4|
6,4,0.068|
6,5,5.9|
6,6,0.26|
6,7,8|
7,0,8.7|
7,1,7.9|
7,2,2.3|
7,3,5.9|
7,4,2.1|
7,5,4.3|
7,6,1.4|
7,7,1.7|
];
constraint_x15_x11=[
0,0,7.2|
0,1,7|
0,2,4.9|
0,3,4.2|
0,4,7.5|
0,5,4.9|
0,6,2.4|
0,7,8.6|
1,0,4|
1,1,9.4|
1,2,8.1|
1,3,5.7|
1,4,2.2|
1,5,1.8|
1,6,4.8|
1,7,5.4|
2,0,0.34|
2,1,9.4|
2,2,7|
2,3,0.74|
2,4,9.3|
2,5,0.89|
2,6,2.2|
2,7,9.3|
3,0,1.5|
3,1,9|
3,2,1.2|
3,3,5.1|
3,4,1.6|
3,5,6.3|
3,6,3.6|
3,7,6|
4,0,1.7|
4,1,5.5|
4,2,8.7|
4,3,5.4|
4,4,9.2|
4,5,0.56|
4,6,7.9|
4,7,3.5|
5,0,3.9|
5,1,3.6|
5,2,7.7|
5,3,0.15|
5,4,7.5|
5,5,7.7|
5,6,4.1|
5,7,1.3|
6,0,6.4|
6,1,5.1|
6,2,7.5|
6,3,6|
6,4,6.2|
6,5,4.6|
6,6,8.8|
6,7,0.56|
7,0,2|
7,1,0.25|
7,2,9.1|
7,3,0.61|
7,4,3.4|
7,5,2|
7,6,8.3|
7,7,0.24|
];
constraint_x15_x14=[
0,0,9.6|
0,1,0.67|
0,2,4.7|
0,3,9.7|
0,4,2.3|
0,5,7.8|
0,6,9.4|
0,7,4.6|
1,0,9.5|
1,1,9.3|
1,2,3.7|
1,3,1.9|
1,4,7|
1,5,3.7|
1,6,5.4|
1,7,3.2|
2,0,7.5|
2,1,6.2|
2,2,4.7|
2,3,1|
2,4,3.2|
2,5,3.2|
2,6,7.4|
2,7,5.5|
3,0,2|
3,1,6.3|
3,2,0.68|
3,3,8.7|
3,4,8.3|
3,5,5.3|
3,6,4.8|
3,7,6.1|
4,0,4.9|
4,1,3.1|
4,2,0.67|
4,3,3|
4,4,6.8|
4,5,5.3|
4,6,1.3|
4,7,8.8|
5,0,3.7|
5,1,2.1|
5,2,6|
5,3,1.4|
5,4,3.6|
5,5,4.2|
5,6,9|
5,7,9.5|
6,0,5.8|
6,1,3.4|
6,2,2.8|
6,3,0.18|
6,4,9|
6,5,6|
6,6,3.2|
6,7,0.96|
7,0,9.9|
7,1,3.4|
7,2,3.8|
7,3,8.7|
7,4,7.7|
7,5,7.8|
7,6,4.6|
7,7,5.4|
];
constraint_x16_x12=[
0,0,1.7|
0,1,1.1|
0,2,5.1|
0,3,8.8|
0,4,2.8|
0,5,1.5|
0,6,6.4|
0,7,0.15|
1,0,0.55|
1,1,8.7|
1,2,5|
1,3,3.2|
1,4,1.8|
1,5,6.7|
1,6,8.1|
1,7,7.4|
2,0,1.1|
2,1,8.3|
2,2,5.9|
2,3,9.2|
2,4,8.2|
2,5,4.5|
2,6,1.6|
2,7,4.8|
3,0,5.1|
3,1,2.2|
3,2,6.9|
3,3,3.3|
3,4,6.4|
3,5,0.26|
3,6,2.9|
3,7,0.55|
4,0,7.4|
4,1,3.6|
4,2,2.2|
4,3,1.9|
4,4,3.3|
4,5,4.1|
4,6,8.7|
4,7,0.62|
5,0,1.7|
5,1,5.4|
5,2,9|
5,3,9.8|
5,4,4.1|
5,5,4.2|
5,6,3.2|
5,7,9.6|
6,0,8.5|
6,1,5.7|
6,2,4.6|
6,3,6.3|
6,4,5.4|
6,5,7.2|
6,6,7.3|
6,7,5.8|
7,0,6|
7,1,1.2|
7,2,1.1|
7,3,4.1|
7,4,1.7|
7,5,0.55|
7,6,7.1|
7,7,7.6|
];
constraint_x16_x15=[
0,0,6.8|
0,1,10|
0,2,4.1|
0,3,1.5|
0,4,5.2|
0,5,8|
0,6,1.1|
0,7,2.8|
1,0,3.5|
1,1,6.2|
1,2,2|
1,3,8.2|
1,4,4.3|
1,5,4.8|
1,6,5.4|
1,7,5.2|
2,0,6.2|
2,1,7.9|
2,2,7.1|
2,3,6.5|
2,4,7.9|
2,5,7.9|
2,6,5.9|
2,7,8.6|
3,0,2.3|
3,1,3.3|
3,2,4|
3,3,7.4|
3,4,2.6|
3,5,7.1|
3,6,1.8|
3,7,8.4|
4,0,8|
4,1,7.8|
4,2,3.9|
4,3,6.3|
4,4,0.16|
4,5,0.71|
4,6,2.6|
4,7,7|
5,0,0.11|
5,1,8|
5,2,3.7|
5,3,9.6|
5,4,0.7|
5,5,8.3|
5,6,4.7|
5,7,0.82|
6,0,0.43|
6,1,8.8|
6,2,1.9|
6,3,1.3|
6,4,8.4|
6,5,1|
6,6,4.1|
6,7,8.2|
7,0,6.7|
7,1,4.2|
7,2,6.4|
7,3,4.2|
7,4,4.4|
7,5,3.6|
7,6,3.9|
7,7,5|
];
constraint_x1_y1=[
0,0,2.6|
0,1,1.3|
0,2,8.3|
0,3,2.8|
0,4,5.3|
0,5,8.2|
0,6,6.5|
0,7,0.9|
1,0,1.8|
1,1,9.2|
1,2,3.2|
1,3,5.3|
1,4,0.8|
1,5,9.3|
1,6,3.6|
1,7,6.2|
2,0,7.4|
2,1,0.32|
2,2,6.5|
2,3,5.3|
2,4,1.7|
2,5,2.4|
2,6,6.8|
2,7,0.63|
3,0,8.5|
3,1,4.2|
3,2,0.92|
3,3,9.5|
3,4,8.8|
3,5,8.3|
3,6,5.3|
3,7,9.7|
4,0,4.6|
4,1,7.8|
4,2,0.44|
4,3,3.2|
4,4,0.64|
4,5,4.3|
4,6,3.8|
4,7,0.17|
5,0,2.9|
5,1,5.5|
5,2,7.5|
5,3,9.6|
5,4,4.6|
5,5,5.8|
5,6,1.9|
5,7,3.4|
6,0,9|
6,1,5.5|
6,2,1.2|
6,3,4.3|
6,4,9.5|
6,5,3.4|
6,6,6|
6,7,3.3|
7,0,6.1|
7,1,8.9|
7,2,1.6|
7,3,5.4|
7,4,3.2|
7,5,0.12|
7,6,5.9|
7,7,2.1|
];
constraint_x2_y2=[
0,0,5.5|
0,1,0.85|
0,2,8.7|
0,3,2.2|
0,4,2.5|
0,5,2.1|
0,6,8.7|
0,7,9.9|
1,0,1.2|
1,1,5.6|
1,2,5.3|
1,3,5.9|
1,4,7.2|
1,5,3.2|
1,6,9.9|
1,7,4|
2,0,2.4|
2,1,9.4|
2,2,9.1|
2,3,0.53|
2,4,9.9|
2,5,6.6|
2,6,1.6|
2,7,1.6|
3,0,1.7|
3,1,3.2|
3,2,5.7|
3,3,8.3|
3,4,1.6|
3,5,9.9|
3,6,0.24|
3,7,6|
4,0,7|
4,1,0.49|
4,2,6.5|
4,3,7.7|
4,4,1.2|
4,5,6|
4,6,9.4|
4,7,3.6|
5,0,7.2|
5,1,1.4|
5,2,2.2|
5,3,7.2|
5,4,0.5|
5,5,6.6|
5,6,8.9|
5,7,7.8|
6,0,0.79|
6,1,7|
6,2,0.9|
6,3,2.9|
6,4,3.5|
6,5,9.3|
6,6,9.2|
6,7,3.8|
7,0,2.9|
7,1,2.3|
7,2,9.7|
7,3,3.5|
7,4,8.9|
7,5,4.5|
7,6,7.4|
7,7,9.9|
];
constraint_x3_y3=[
0,0,0.26|
0,1,2.4|
0,2,7.5|
0,3,2.4|
0,4,3.8|
0,5,1.1|
0,6,0.97|
0,7,2|
1,0,10|
1,1,1|
1,2,3.9|
1,3,8.8|
1,4,7.4|
1,5,7|
1,6,8.1|
1,7,9.3|
2,0,1.3|
2,1,6.8|
2,2,5.7|
2,3,3.6|
2,4,5.6|
2,5,4.9|
2,6,9.3|
2,7,7.2|
3,0,9|
3,1,7.9|
3,2,7.4|
3,3,5.7|
3,4,4.6|
3,5,9.6|
3,6,6.8|
3,7,4|
4,0,8|
4,1,1.5|
4,2,3.6|
4,3,1.9|
4,4,8.2|
4,5,2.3|
4,6,6.4|
4,7,2.3|
5,0,9.3|
5,1,2.7|
5,2,8.1|
5,3,7.5|
5,4,8.5|
5,5,3.7|
5,6,8.3|
5,7,6.2|
6,0,5.4|
6,1,7.2|
6,2,10|
6,3,6.4|
6,4,7.8|
6,5,5.5|
6,6,6.3|
6,7,5.1|
7,0,8.5|
7,1,4.6|
7,2,2.9|
7,3,8.8|
7,4,9.8|
7,5,7.4|
7,6,2.2|
7,7,4.9|
];
constraint_x4_y4=[
0,0,1.5|
0,1,5|
0,2,8.1|
0,3,8.9|
0,4,8.4|
0,5,5|
0,6,5.5|
0,7,2|
1,0,9.4|
1,1,5.9|
1,2,0.23|
1,3,4.5|
1,4,1.3|
1,5,5.3|
1,6,7.3|
1,7,1.4|
2,0,3.4|
2,1,5.1|
2,2,1.9|
2,3,0.076|
2,4,5.2|
2,5,0.94|
2,6,9.9|
2,7,6.1|
3,0,9.6|
3,1,1.4|
3,2,4.4|
3,3,6.4|
3,4,5.3|
3,5,0.2|
3,6,8.1|
3,7,5.2|
4,0,1.3|
4,1,3.8|
4,2,1.8|
4,3,2.3|
4,4,9.7|
4,5,5.9|
4,6,5.1|
4,7,6.5|
5,0,1.8|
5,1,2.4|
5,2,3|
5,3,8.4|
5,4,0.41|
5,5,2.7|
5,6,5.1|
5,7,9.1|
6,0,2.2|
6,1,0.36|
6,2,8.1|
6,3,1.2|
6,4,5.3|
6,5,5.5|
6,6,3.9|
6,7,2.7|
7,0,8.3|
7,1,9.1|
7,2,8.7|
7,3,7.3|
7,4,8.7|
7,5,6.8|
7,6,6.7|
7,7,4.4|
];
constraint_x5_y5=[
0,0,0.52|
0,1,4.6|
0,2,8.9|
0,3,4.4|
0,4,1|
0,5,3|
0,6,0.38|
0,7,1.9|
1,0,6.8|
1,1,3|
1,2,9.4|
1,3,5.2|
1,4,1.5|
1,5,1.6|
1,6,4.6|
1,7,9|
2,0,6.7|
2,1,8.6|
2,2,0.97|
2,3,7.5|
2,4,0.71|
2,5,1.7|
2,6,4.6|
2,7,3.1|
3,0,0.085|
3,1,0.69|
3,2,2.7|
3,3,8|
3,4,2.2|
3,5,7.7|
3,6,4.5|
3,7,7|
4,0,4.7|
4,1,5.1|
4,2,8.9|
4,3,2.6|
4,4,2.9|
4,5,8|
4,6,7.4|
4,7,7.4|
5,0,7.5|
5,1,8.5|
5,2,8.4|
5,3,7.5|
5,4,6.5|
5,5,6.7|
5,6,2.4|
5,7,8.7|
6,0,9.1|
6,1,1.7|
6,2,2.6|
6,3,0.43|
6,4,6.9|
6,5,4.2|
6,6,5.5|
6,7,0.6|
7,0,2.3|
7,1,2.3|
7,2,5.7|
7,3,0.097|
7,4,8.9|
7,5,3.2|
7,6,3.1|
7,7,3.7|
];
constraint_x6_y6=[
0,0,0.022|
0,1,5.3|
0,2,2|
0,3,2.2|
0,4,3|
0,5,5.9|
0,6,4.5|
0,7,4|
1,0,4.9|
1,1,2.8|
1,2,3.8|
1,3,3.7|
1,4,2.7|
1,5,3.3|
1,6,3.7|
1,7,7.2|
2,0,0.38|
2,1,0.12|
2,2,8.5|
2,3,7.8|
2,4,1.6|
2,5,8.8|
2,6,5.4|
2,7,3.9|
3,0,8.4|
3,1,9.3|
3,2,9.9|
3,3,1.8|
3,4,0.32|
3,5,3.1|
3,6,5|
3,7,0.93|
4,0,3|
4,1,9.2|
4,2,7.6|
4,3,0.93|
4,4,8.5|
4,5,3.6|
4,6,6.5|
4,7,1.7|
5,0,6.4|
5,1,5.8|
5,2,10|
5,3,2.7|
5,4,5.2|
5,5,6.9|
5,6,4.7|
5,7,3|
6,0,5|
6,1,3.5|
6,2,5|
6,3,2.9|
6,4,8.3|
6,5,7.9|
6,6,0.26|
6,7,8.6|
7,0,8.8|
7,1,5.7|
7,2,9.6|
7,3,6.8|
7,4,0.12|
7,5,8.8|
7,6,1.3|
7,7,0.58|
];
constraint_x7_y7=[
0,0,9.3|
0,1,0.017|
0,2,0.65|
0,3,0.33|
0,4,7.5|
0,5,10|
0,6,3.2|
0,7,8.7|
1,0,8|
1,1,0.45|
1,2,0.63|
1,3,4.9|
1,4,0.91|
1,5,8.6|
1,6,7.6|
1,7,5.3|
2,0,3.5|
2,1,8.1|
2,2,3.3|
2,3,3.2|
2,4,2|
2,5,6.5|
2,6,3.1|
2,7,9.6|
3,0,8.4|
3,1,1.1|
3,2,9.6|
3,3,2.2|
3,4,3.5|
3,5,3.3|
3,6,7.7|
3,7,2.4|
4,0,7.7|
4,1,2.9|
4,2,0.65|
4,3,4.9|
4,4,6.2|
4,5,4.6|
4,6,8.7|
4,7,4.1|
5,0,6.1|
5,1,2.4|
5,2,9.9|
5,3,0.87|
5,4,3.8|
5,5,5.2|
5,6,2.7|
5,7,7.6|
6,0,7.4|
6,1,8.6|
6,2,7.5|
6,3,3.5|
6,4,9.9|
6,5,9.6|
6,6,0.74|
6,7,1.4|
7,0,0.92|
7,1,7.3|
7,2,1|
7,3,0.3|
7,4,0.3|
7,5,5.7|
7,6,2|
7,7,7.5|
];
initial_distribution_y1=[0.051,0.03,0.042,0.21,0.094,0.32,0.051,0.21];
initial_distribution_y2=[0.093,0.19,0.11,0.096,0.078,0.15,0.11,0.16];
initial_distribution_y3=[0.086,0.2,0.17,0.16,0.13,0.063,0.1,0.098];
initial_distribution_y4=[0.18,0.13,0.16,0.15,0.25,0.011,0.083,0.039];
initial_distribution_y5=[0.16,0.022,0.16,0.21,0.093,0.19,0.0092,0.15];
initial_distribution_y6=[0.082,0.15,0.1,0.18,0.026,0.02,0.24,0.2];
initial_distribution_y7=[0.0097,0.19,0.19,0.023,0.25,0.058,0.13,0.15];
transition_y1=[
0.023,0.17,0.026,0.21,0.24,0.19,0.022,0.13|
0.14,0.14,0.21,0.12,0.085,0.16,0.14,0.0035|
0.091,0.096,0.19,0.2,0.018,0.04,0.22,0.15|
0.077,0.11,0.12,0.16,0.19,0.17,0.077,0.098|
0.038,0.19,0.13,0.15,0.13,0.24,0.037,0.091|
0.0031,0.23,0.19,0.12,0.097,0.2,0.082,0.071|
0.2,0.16,0.033,0.36,0.097,0.0053,0.0053,0.14|
0.085,0.2,0.043,0.13,0.024,0.22,0.072,0.23|
];
transition_y2=[
0.012,0.43,0.18,0.11,0.094,0.02,0.081,0.067|
0.14,0.2,0.019,0.18,0.018,0.028,0.19,0.23|
0.24,0.22,0.061,0.09,0.09,0.15,0.0078,0.14|
0.17,0.047,0.062,0.014,0.31,0.02,0.02,0.36|
0.061,0.16,0.097,0.19,0.19,0.12,0.0023,0.18|
0.25,0.097,0.049,0.08,0.041,0.21,0.13,0.15|
0.11,0.11,0.06,0.19,0.16,0.22,0.12,0.028|
0.17,0.13,0.16,0.17,0.12,0.016,0.16,0.07|
];
transition_y3=[
0.057,0.24,0.22,0.23,0.082,0.018,0.15,0.0028|
0.18,0.17,0.21,0.1,0.01,0.096,0.14,0.091|
0.016,0.14,0.13,0.092,0.15,0.17,0.15,0.15|
0.21,0.073,0.078,0.036,0.21,0.14,0.16,0.081|
0.22,0.15,0.038,0.042,0.11,0.21,0.082,0.15|
0.055,0.13,0.095,0.058,0.26,0.26,0.044,0.091|
0.15,0.12,0.15,0.15,0.16,0.09,0.12,0.065|
0.067,0.16,0.17,0.092,0.021,0.018,0.25,0.22|
];
transition_y4=[
0.21,0.14,0.099,0.065,0.11,0.17,0.12,0.095|
0.17,0.0024,0.17,0.2,0.12,0.16,0.14,0.047|
0.048,0.16,0.33,0.047,0.19,0.048,0.05,0.14|
0.087,0.19,0.2,0.076,0.019,0.12,0.071,0.24|
0.15,0.088,0.075,0.11,0.054,0.28,0.011,0.24|
0.15,0.23,0.07,0.17,0.17,0.17,0.018,0.022|
0.1,0.12,0.16,0.11,0.22,0.026,0.1,0.16|
0.036,0.2,0.08,0.21,0.098,0.19,0.11,0.069|
];
transition_y5=[
0.2,0.27,0.11,0.016,0.13,0.015,0.2,0.06|
0.059,0.17,0.12,0.12,0.18,0.18,0.13,0.047|
0.21,0.0036,0.13,0.028,0.21,0.11,0.14,0.17|
0.18,0.094,0.15,0.003,0.16,0.17,0.083,0.15|
0.072,0.33,0.022,0.019,0.2,0.069,0.1,0.19|
0.17,0.0076,0.018,0.14,0.037,0.36,0.058,0.2|
0.19,0.2,0.15,0.15,0.12,0.12,0.047,0.02|
0.076,0.17,0.11,0.067,0.16,0.12,0.17,0.12|
];
transition_y6=[
0.022,0.18,0.16,0.18,0.015,0.11,0.13,0.19|
0.13,0.12,0.033,0.097,0.18,0.11,0.14,0.19|
0.21,0.21,0.19,0.0098,0.14,0.026,0.2,0.0055|
0.082,0.15,0.088,0.12,0.02,0.18,0.15,0.21|
0.019,0.067,0.24,0.031,0.19,0.2,0.0037,0.25|
0.067,0.1,0.12,0.19,0.043,0.16,0.057,0.26|
0.076,0.14,0.021,0.031,0.2,0.25,0.059,0.23|
0.092,0.042,0.14,0.12,0.14,0.18,0.13,0.15|
];
transition_y7=[
0.12,0.17,0.18,0.078,0.19,0.026,0.15,0.097|
0.14,0.12,0.021,0.26,0.16,0.1,0.069,0.12|
0.21,0.12,0.076,0.13,0.17,0.1,0.18,0.011|
0.17,0.21,0.093,0.18,0.15,0.065,0.033,0.1|
0.14,0.024,0.21,0.13,0.074,0.098,0.16,0.17|
0.038,0.16,0.057,0.21,0.024,0.19,0.17,0.14|
0.15,0.19,0.014,0.039,0.058,0.17,0.19,0.18|
0.052,0.097,0.21,0.063,0.24,0.14,0.084,0.11|
];
